experiments/sat_smt/run/sat-r/results/kate.res
solved=true
solvingTime=56.35931396484375
nActions=10