experiments/sat_smt/run/sat-r/results/kate.out
Timesteps: 1
s UNSATISFIABLE
real 0.14
user 0.02
sys 0.00
Timesteps: 2
s UNSATISFIABLE
real 0.15
user 0.04
sys 0.00
Timesteps: 3
s UNSATISFIABLE
real 0.26
user 0.09
sys 0.00
Timesteps: 4
s UNSATISFIABLE
real 0.31
user 0.20
sys 0.00
Timesteps: 5
s UNSATISFIABLE
real 0.62
user 0.48
sys 0.01
Timesteps: 6
s UNSATISFIABLE
real 1.68
user 1.52
sys 0.02
Timesteps: 7
s UNSATISFIABLE
real 4.27
user 4.02
sys 0.02
Timesteps: 8
s UNSATISFIABLE
real 8.35
user 8.11
sys 0.03
Timesteps: 9
s UNSATISFIABLE
real 23.00
user 22.32
sys 0.05
Timesteps: 10
s SATISFIABLE
real 18.21
user 17.47
sys 0.05
